NAME : gr48
TYPE : OP
DIMENSION : 48
COST_LIMIT : 4037
ROUTE_NODES : 38
ROUTE_SCORE : 2264
ROUTE_COST : 4026
NODE_SEQUENCE_SECTION
1
29
7
28
46
18
34
23
25
3
19
4
30
43
45
38
20
35
42
39
40
37
47
26
15
10
12
5
33
8
32
27
21
22
6
11
16
13
-1
DEPOT_SECTION
1
-1
EOF
